objective value:                                12166
t_x_0                                               1 	(obj:12)
t_x_7                                               1 	(obj:31)
t_x_9                                               1 	(obj:30)
t_x_10                                              1 	(obj:9)
t_x_18                                              1 	(obj:13)
t_x_19                                              1 	(obj:28)
t_x_20                                              1 	(obj:11)
t_x_26                                              1 	(obj:2)
t_x_28                                              1 	(obj:0)
t_x_29                                              1 	(obj:8)
t_x_32                                              1 	(obj:3)
t_x_34                                              1 	(obj:70)
t_x_40                                              1 	(obj:23)
t_x_42                                              1 	(obj:33)
t_x_56                                              1 	(obj:25)
t_x_61                                              1 	(obj:30)
t_x_62                                              1 	(obj:34)
t_x_63                                              1 	(obj:20)
t_x_66                                              1 	(obj:63)
t_x_79                                              1 	(obj:44)
t_x_81                                              1 	(obj:45)
t_x_83                                              1 	(obj:9)
t_x_85                                              1 	(obj:5)
t_x_86                                              1 	(obj:16)
t_x_87                                              1 	(obj:44)
t_x_89                                              1 	(obj:55)
t_x_98                                              1 	(obj:4)
t_x_102                                             1 	(obj:44)
t_x_104                                             1 	(obj:10)
t_x_105                                             1 	(obj:5)
t_x_106                                             1 	(obj:23)
t_x_109                                             1 	(obj:15)
t_x_113                                             1 	(obj:10)
t_x_114                                             1 	(obj:30)
t_x_116                                             1 	(obj:1)
t_x_119                                             1 	(obj:1)
t_x_120                                             1 	(obj:22)
t_x_122                                             1 	(obj:40)
t_x_126                                             1 	(obj:22)
t_x_127                                             1 	(obj:20)
t_x_128                                             1 	(obj:34)
t_x_131                                             1 	(obj:2)
t_x_132                                             1 	(obj:0)
t_x_135                                             1 	(obj:7)
t_x_136                                             1 	(obj:32)
t_x_138                                             1 	(obj:41)
t_x_146                                             1 	(obj:30)
t_x_148                                             1 	(obj:10)
t_x_153                                             1 	(obj:23)
t_x_158                                             1 	(obj:22)
t_x_163                                             1 	(obj:29)
t_x_164                                             1 	(obj:5)
t_x_167                                             1 	(obj:5)
t_x_168                                             1 	(obj:28)
t_x_192                                             1 	(obj:13)
t_x_196                                             1 	(obj:18)
t_x_204                                             1 	(obj:12)
t_x_206                                             1 	(obj:8)
t_x_211                                             1 	(obj:5)
t_x_212                                             1 	(obj:17)
t_x_214                                             1 	(obj:0)
t_x_224                                             1 	(obj:6)
t_x_227                                             1 	(obj:16)
t_x_228                                             1 	(obj:9)
t_x_229                                             1 	(obj:15)
t_x_232                                             1 	(obj:0)
t_x_236                                             1 	(obj:32)
t_x_242                                             1 	(obj:9)
t_x_244                                             1 	(obj:41)
t_x_245                                             1 	(obj:27)
t_x_246                                             1 	(obj:22)
t_x_250                                             1 	(obj:11)
t_x_251                                             1 	(obj:6)
t_x_255                                             1 	(obj:45)
t_x_260                                             1 	(obj:1)
t_x_261                                             1 	(obj:8)
t_x_267                                             1 	(obj:52)
t_x_268                                             1 	(obj:41)
t_x_269                                             1 	(obj:20)
t_x_271                                             1 	(obj:5)
t_x_273                                             1 	(obj:10)
t_x_274                                             1 	(obj:31)
t_x_275                                             1 	(obj:16)
t_x_278                                             1 	(obj:5)
t_x_281                                             1 	(obj:14)
t_x_282                                             1 	(obj:5)
t_x_283                                             1 	(obj:12)
t_x_289                                             1 	(obj:17)
t_x_292                                             1 	(obj:10)
t_x_296                                             1 	(obj:6)
t_x_303                                             1 	(obj:16)
t_x_304                                             1 	(obj:27)
t_x_305                                             1 	(obj:7)
t_x_306                                             1 	(obj:57)
t_x_308                                             1 	(obj:22)
t_x_310                                             1 	(obj:5)
t_x_312                                             1 	(obj:28)
t_x_318                                             1 	(obj:37)
t_x_319                                             1 	(obj:37)
t_x_320                                             1 	(obj:21)
t_x_321                                             1 	(obj:8)
t_x_322                                             1 	(obj:8)
t_x_324                                             1 	(obj:0)
t_x_325                                             1 	(obj:7)
t_x_326                                             1 	(obj:12)
t_x_327                                             1 	(obj:45)
t_x_330                                             1 	(obj:0)
t_x_332                                             1 	(obj:1)
t_x_335                                             1 	(obj:5)
t_x_340                                             1 	(obj:0)
t_x_342                                             1 	(obj:3)
t_x_345                                             1 	(obj:73)
t_x_346                                             1 	(obj:33)
t_x_351                                             1 	(obj:16)
t_x_362                                             1 	(obj:17)
t_x_364                                             1 	(obj:12)
t_x_370                                             1 	(obj:7)
t_x_372                                             1 	(obj:18)
t_x_375                                             1 	(obj:16)
t_x_378                                             1 	(obj:8)
t_x_387                                             1 	(obj:15)
t_x_388                                             1 	(obj:24)
t_x_395                                             1 	(obj:74)
t_x_398                                             1 	(obj:8)
t_x_402                                             1 	(obj:17)
t_x_405                                             1 	(obj:2)
t_x_411                                             1 	(obj:47)
t_x_413                                             1 	(obj:32)
t_x_418                                             1 	(obj:36)
t_x_424                                             1 	(obj:19)
t_x_429                                             1 	(obj:21)
t_x_432                                             1 	(obj:25)
t_x_435                                             1 	(obj:14)
t_x_439                                             1 	(obj:6)
t_x_440                                             1 	(obj:18)
t_x_444                                             1 	(obj:42)
t_x_446                                             1 	(obj:12)
t_x_465                                             1 	(obj:43)
t_x_469                                             1 	(obj:10)
t_x_473                                             1 	(obj:18)
t_x_475                                             1 	(obj:0)
t_x_480                                             1 	(obj:12)
t_x_482                                             1 	(obj:38)
t_x_485                                             1 	(obj:5)
t_x_492                                             1 	(obj:0)
t_x_497                                             1 	(obj:14)
t_x_501                                             1 	(obj:22)
t_x_502                                             1 	(obj:10)
t_x_503                                             1 	(obj:5)
t_x_505                                             1 	(obj:71)
t_x_507                                             1 	(obj:23)
t_x_510                                             1 	(obj:19)
t_x_516                                             1 	(obj:47)
t_x_518                                             1 	(obj:18)
t_x_519                                             1 	(obj:21)
t_x_522                                             1 	(obj:13)
t_x_524                                             1 	(obj:25)
t_x_531                                             1 	(obj:10)
t_x_532                                             1 	(obj:7)
t_x_534                                             1 	(obj:3)
t_x_537                                             1 	(obj:41)
t_x_538                                             1 	(obj:30)
t_x_541                                             1 	(obj:31)
t_x_542                                             1 	(obj:50)
t_x_553                                             1 	(obj:6)
t_x_557                                             1 	(obj:7)
t_x_558                                             1 	(obj:7)
t_x_560                                             1 	(obj:34)
t_x_566                                             1 	(obj:14)
t_x_570                                             1 	(obj:17)
t_x_574                                             1 	(obj:25)
t_x_575                                             1 	(obj:42)
t_x_576                                             1 	(obj:12)
t_x_578                                             1 	(obj:14)
t_x_580                                             1 	(obj:0)
t_x_581                                             1 	(obj:40)
t_x_584                                             1 	(obj:10)
t_x_585                                             1 	(obj:46)
t_x_587                                             1 	(obj:0)
t_x_589                                             1 	(obj:10)
t_x_593                                             1 	(obj:20)
t_x_594                                             1 	(obj:0)
t_x_595                                             1 	(obj:30)
t_x_596                                             1 	(obj:17)
t_x_599                                             1 	(obj:1)
t_x_600                                             1 	(obj:69)
t_x_601                                             1 	(obj:32)
t_x_609                                             1 	(obj:77)
t_x_610                                             1 	(obj:10)
t_x_613                                             1 	(obj:2)
t_x_614                                             1 	(obj:13)
t_x_615                                             1 	(obj:27)
t_x_616                                             1 	(obj:1)
t_x_620                                             1 	(obj:8)
t_x_621                                             1 	(obj:3)
t_x_623                                             1 	(obj:28)
t_x_625                                             1 	(obj:40)
t_x_626                                             1 	(obj:3)
t_x_631                                             1 	(obj:21)
t_x_633                                             1 	(obj:35)
t_x_636                                             1 	(obj:8)
t_x_640                                             1 	(obj:17)
t_x_650                                             1 	(obj:1)
t_x_655                                             1 	(obj:23)
t_x_658                                             1 	(obj:6)
t_x_660                                             1 	(obj:57)
t_x_673                                             1 	(obj:5)
t_x_680                                             1 	(obj:3)
t_x_686                                             1 	(obj:49)
t_x_687                                             1 	(obj:11)
t_x_690                                             1 	(obj:12)
t_x_692                                             1 	(obj:28)
t_x_694                                             1 	(obj:2)
t_x_698                                             1 	(obj:5)
t_x_702                                             1 	(obj:28)
t_x_708                                             1 	(obj:18)
t_x_709                                             1 	(obj:16)
t_x_710                                             1 	(obj:42)
t_x_713                                             1 	(obj:24)
t_x_715                                             1 	(obj:9)
t_x_719                                             1 	(obj:36)
t_x_731                                             1 	(obj:27)
t_x_732                                             1 	(obj:16)
t_x_733                                             1 	(obj:6)
t_x_737                                             1 	(obj:45)
t_x_738                                             1 	(obj:16)
t_x_741                                             1 	(obj:31)
t_x_742                                             1 	(obj:2)
t_x_743                                             1 	(obj:3)
t_x_744                                             1 	(obj:37)
t_x_745                                             1 	(obj:19)
t_x_748                                             1 	(obj:2)
t_x_749                                             1 	(obj:19)
t_x_750                                             1 	(obj:15)
t_x_751                                             1 	(obj:7)
t_x_752                                             1 	(obj:20)
t_x_755                                             1 	(obj:34)
t_x_760                                             1 	(obj:20)
t_x_765                                             1 	(obj:6)
t_x_768                                             1 	(obj:2)
t_x_770                                             1 	(obj:12)
t_x_778                                             1 	(obj:5)
t_x_779                                             1 	(obj:3)
t_x_780                                             1 	(obj:21)
t_x_781                                             1 	(obj:9)
t_x_783                                             1 	(obj:0)
t_x_794                                             1 	(obj:67)
t_x_797                                             1 	(obj:7)
t_x_799                                             1 	(obj:30)
t_x_800                                             1 	(obj:42)
t_x_804                                             1 	(obj:31)
t_x_809                                             1 	(obj:27)
t_x_810                                             1 	(obj:2)
t_x_815                                             1 	(obj:3)
t_x_816                                             1 	(obj:2)
t_x_824                                             1 	(obj:40)
t_x_826                                             1 	(obj:2)
t_x_828                                             1 	(obj:0)
t_x_831                                             1 	(obj:12)
t_x_833                                             1 	(obj:31)
t_x_835                                             1 	(obj:1)
t_x_836                                             1 	(obj:52)
t_x_839                                             1 	(obj:24)
t_x_840                                             1 	(obj:57)
t_x_841                                             1 	(obj:6)
t_x_844                                             1 	(obj:3)
t_x_849                                             1 	(obj:20)
t_x_852                                             1 	(obj:13)
t_x_853                                             1 	(obj:8)
t_x_857                                             1 	(obj:23)
t_x_858                                             1 	(obj:2)
t_x_863                                             1 	(obj:23)
t_x_869                                             1 	(obj:14)
t_x_872                                             1 	(obj:53)
t_x_873                                             1 	(obj:25)
t_x_875                                             1 	(obj:6)
t_x_878                                             1 	(obj:43)
t_x_880                                             1 	(obj:12)
t_x_885                                             1 	(obj:19)
t_x_886                                             1 	(obj:14)
t_x_889                                             1 	(obj:6)
t_x_892                                             1 	(obj:24)
t_x_893                                             1 	(obj:27)
t_x_894                                             1 	(obj:32)
t_x_898                                             1 	(obj:14)
t_x_902                                             1 	(obj:18)
t_x_903                                             1 	(obj:16)
t_x_906                                             1 	(obj:7)
t_x_907                                             1 	(obj:30)
t_x_908                                             1 	(obj:28)
t_x_914                                             1 	(obj:2)
t_x_915                                             1 	(obj:1)
t_x_918                                             1 	(obj:47)
t_x_923                                             1 	(obj:3)
t_x_926                                             1 	(obj:7)
t_x_935                                             1 	(obj:33)
t_x_941                                             1 	(obj:13)
t_x_942                                             1 	(obj:5)
t_x_944                                             1 	(obj:12)
t_x_946                                             1 	(obj:3)
t_x_951                                             1 	(obj:28)
t_x_953                                             1 	(obj:6)
t_x_955                                             1 	(obj:20)
t_x_956                                             1 	(obj:12)
t_x_961                                             1 	(obj:15)
t_x_964                                             1 	(obj:18)
t_x_969                                             1 	(obj:11)
t_x_977                                             1 	(obj:1)
t_x_978                                             1 	(obj:7)
t_x_980                                             1 	(obj:45)
t_x_983                                             1 	(obj:2)
t_x_984                                             1 	(obj:29)
t_x_990                                             1 	(obj:22)
t_x_993                                             1 	(obj:32)
t_x_994                                             1 	(obj:9)
t_x_996                                             1 	(obj:23)
t_x_998                                             1 	(obj:38)
t_x_1000                                            1 	(obj:13)
t_x_1002                                            1 	(obj:1)
t_x_1008                                            1 	(obj:27)
t_x_1009                                            1 	(obj:22)
t_x_1011                                            1 	(obj:3)
t_x_1013                                            1 	(obj:16)
t_x_1016                                            1 	(obj:7)
t_x_1021                                            1 	(obj:36)
t_x_1022                                            1 	(obj:11)
t_x_1024                                            1 	(obj:16)
t_x_1026                                            1 	(obj:22)
t_x_1027                                            1 	(obj:8)
t_x_1030                                            1 	(obj:32)
t_x_1031                                            1 	(obj:34)
t_x_1037                                            1 	(obj:42)
t_x_1040                                            1 	(obj:34)
t_x_1044                                            1 	(obj:21)
t_x_1051                                            1 	(obj:19)
t_x_1052                                            1 	(obj:42)
t_x_1054                                            1 	(obj:21)
t_x_1064                                            1 	(obj:1)
t_x_1065                                            1 	(obj:24)
t_x_1070                                            1 	(obj:43)
t_x_1075                                            1 	(obj:44)
t_x_1077                                            1 	(obj:8)
t_x_1078                                            1 	(obj:26)
t_x_1079                                            1 	(obj:23)
t_x_1080                                            1 	(obj:25)
t_x_1083                                            1 	(obj:33)
t_x_1085                                            1 	(obj:49)
t_x_1086                                            1 	(obj:34)
t_x_1092                                            1 	(obj:30)
t_x_1095                                            1 	(obj:44)
t_x_1098                                            1 	(obj:33)
t_x_1103                                            1 	(obj:6)
t_x_1106                                            1 	(obj:15)
t_x_1110                                            1 	(obj:8)
t_x_1111                                            1 	(obj:12)
t_x_1114                                            1 	(obj:49)
t_x_1115                                            1 	(obj:2)
t_x_1118                                            1 	(obj:30)
t_x_1121                                            1 	(obj:14)
t_x_1122                                            1 	(obj:32)
t_x_1124                                            1 	(obj:31)
t_x_1130                                            1 	(obj:5)
t_x_1133                                            1 	(obj:42)
t_x_1137                                            1 	(obj:4)
t_x_1145                                            1 	(obj:20)
t_x_1148                                            1 	(obj:22)
t_x_1149                                            1 	(obj:27)
t_x_1158                                            1 	(obj:13)
t_x_1164                                            1 	(obj:27)
t_x_1166                                            1 	(obj:8)
t_x_1168                                            1 	(obj:50)
t_x_1172                                            1 	(obj:39)
t_x_1178                                            1 	(obj:11)
t_x_1180                                            1 	(obj:13)
t_x_1184                                            1 	(obj:1)
t_x_1186                                            1 	(obj:49)
t_x_1188                                            1 	(obj:20)
t_x_1192                                            1 	(obj:25)
t_x_1194                                            1 	(obj:9)
t_x_1195                                            1 	(obj:27)
t_x_1196                                            1 	(obj:12)
t_x_1198                                            1 	(obj:17)
t_x_1202                                            1 	(obj:0)
t_x_1206                                            1 	(obj:1)
t_x_1208                                            1 	(obj:15)
t_x_1209                                            1 	(obj:2)
t_x_1212                                            1 	(obj:2)
t_x_1213                                            1 	(obj:1)
t_x_1216                                            1 	(obj:23)
t_x_1225                                            1 	(obj:25)
t_x_1228                                            1 	(obj:10)
t_x_1233                                            1 	(obj:13)
t_x_1239                                            1 	(obj:0)
t_x_1240                                            1 	(obj:3)
t_x_1242                                            1 	(obj:10)
t_x_1246                                            1 	(obj:17)
t_x_1252                                            1 	(obj:3)
t_x_1253                                            1 	(obj:4)
t_x_1255                                            1 	(obj:5)
t_x_1256                                            1 	(obj:17)
t_x_1261                                            1 	(obj:49)
t_x_1264                                            1 	(obj:36)
t_x_1266                                            1 	(obj:3)
t_x_1269                                            1 	(obj:10)
t_x_1271                                            1 	(obj:7)
t_x_1274                                            1 	(obj:16)
t_x_1276                                            1 	(obj:3)
t_x_1277                                            1 	(obj:0)
t_x_1278                                            1 	(obj:11)
t_x_1279                                            1 	(obj:38)
t_x_1290                                            1 	(obj:14)
t_x_1301                                            1 	(obj:8)
t_x_1304                                            1 	(obj:5)
t_x_1306                                            1 	(obj:39)
t_x_1307                                            1 	(obj:32)
t_x_1314                                            1 	(obj:19)
t_x_1317                                            1 	(obj:9)
t_x_1319                                            1 	(obj:6)
t_x_1320                                            1 	(obj:71)
t_x_1322                                            1 	(obj:7)
t_x_1323                                            1 	(obj:8)
t_x_1326                                            1 	(obj:9)
t_x_1331                                            1 	(obj:8)
t_x_1337                                            1 	(obj:7)
t_x_1338                                            1 	(obj:0)
t_x_1343                                            1 	(obj:8)
t_x_1346                                            1 	(obj:1)
t_x_1349                                            1 	(obj:21)
t_x_1352                                            1 	(obj:12)
t_x_1354                                            1 	(obj:32)
t_x_1356                                            1 	(obj:11)
t_x_1357                                            1 	(obj:63)
t_x_1358                                            1 	(obj:13)
t_x_1359                                            1 	(obj:14)
t_x_1361                                            1 	(obj:14)
t_x_1365                                            1 	(obj:17)
t_x_1370                                            1 	(obj:14)
t_x_1372                                            1 	(obj:15)
t_x_1373                                            1 	(obj:11)
t_x_1377                                            1 	(obj:17)
t_x_1378                                            1 	(obj:51)
t_x_1383                                            1 	(obj:0)
t_x_1395                                            1 	(obj:58)
t_x_1397                                            1 	(obj:22)
t_x_1398                                            1 	(obj:9)
t_x_1410                                            1 	(obj:8)
t_x_1419                                            1 	(obj:43)
t_x_1420                                            1 	(obj:9)
t_x_1421                                            1 	(obj:30)
t_x_1428                                            1 	(obj:41)
t_x_1434                                            1 	(obj:14)
t_x_1441                                            1 	(obj:25)
t_x_1446                                            1 	(obj:32)
t_x_1447                                            1 	(obj:5)
t_x_1448                                            1 	(obj:14)
t_x_1451                                            1 	(obj:32)
t_x_1452                                            1 	(obj:11)
t_x_1458                                            1 	(obj:17)
t_x_1464                                            1 	(obj:22)
t_x_1465                                            1 	(obj:34)
t_x_1467                                            1 	(obj:8)
t_x_1468                                            1 	(obj:32)
t_x_1471                                            1 	(obj:5)
t_x_1473                                            1 	(obj:13)
t_x_1474                                            1 	(obj:29)
t_x_1476                                            1 	(obj:26)
t_x_1477                                            1 	(obj:22)
t_x_1482                                            1 	(obj:4)
t_x_1483                                            1 	(obj:28)
t_x_1486                                            1 	(obj:26)
t_x_1487                                            1 	(obj:26)
t_x_1492                                            1 	(obj:1)
t_x_1495                                            1 	(obj:1)
t_x_1498                                            1 	(obj:1)
t_x_1499                                            1 	(obj:25)
t_x_1502                                            1 	(obj:0)
t_x_1503                                            1 	(obj:30)
t_x_1505                                            1 	(obj:4)
t_x_1506                                            1 	(obj:51)
t_x_1509                                            1 	(obj:39)
t_x_1513                                            1 	(obj:47)
t_x_1514                                            1 	(obj:26)
t_x_1516                                            1 	(obj:28)
t_x_1519                                            1 	(obj:38)
t_x_1520                                            1 	(obj:17)
t_x_1529                                            1 	(obj:2)
t_x_1534                                            1 	(obj:1)
t_x_1537                                            1 	(obj:23)
t_x_1539                                            1 	(obj:16)
t_x_1545                                            1 	(obj:25)
t_x_1548                                            1 	(obj:5)
t_x_1558                                            1 	(obj:5)
t_x_1560                                            1 	(obj:24)
t_x_1566                                            1 	(obj:13)
t_x_1568                                            1 	(obj:39)
t_x_1574                                            1 	(obj:12)
t_x_1576                                            1 	(obj:42)
t_x_1584                                            1 	(obj:9)
t_x_1588                                            1 	(obj:54)
t_x_1589                                            1 	(obj:7)
t_x_1590                                            1 	(obj:28)
t_x_1592                                            1 	(obj:30)
t_x_1594                                            1 	(obj:15)
t_x_1596                                            1 	(obj:3)
t_x_1597                                            1 	(obj:24)
t_x_1601                                            1 	(obj:10)
t_x_1602                                            1 	(obj:51)
t_x_1603                                            1 	(obj:5)
t_x_1604                                            1 	(obj:32)
t_x_1605                                            1 	(obj:0)
t_x_1609                                            1 	(obj:5)
t_x_1614                                            1 	(obj:31)
t_x_1615                                            1 	(obj:22)
t_x_1616                                            1 	(obj:19)
t_x_1620                                            1 	(obj:19)
t_x_1621                                            1 	(obj:11)
t_x_1622                                            1 	(obj:6)
t_x_1625                                            1 	(obj:34)
t_x_1629                                            1 	(obj:40)
t_x_1641                                            1 	(obj:8)
t_x_1642                                            1 	(obj:38)
t_x_1644                                            1 	(obj:10)
t_x_1650                                            1 	(obj:60)
t_x_1652                                            1 	(obj:25)
t_x_1661                                            1 	(obj:18)
t_x_1664                                            1 	(obj:3)
t_x_1666                                            1 	(obj:10)
t_x_1667                                            1 	(obj:40)
t_x_1672                                            1 	(obj:35)
t_x_1678                                            1 	(obj:13)
t_x_1685                                            1 	(obj:27)
t_x_1688                                            1 	(obj:30)
t_x_1697                                            1 	(obj:55)
t_x_1699                                            1 	(obj:23)
t_x_1700                                            1 	(obj:5)
t_x_1701                                            1 	(obj:7)
t_x_1706                                            1 	(obj:13)
t_x_1707                                            1 	(obj:33)
t_x_1709                                            1 	(obj:15)
t_x_1711                                            1 	(obj:41)
t_x_1712                                            1 	(obj:3)
t_x_1715                                            1 	(obj:12)
t_x_1717                                            1 	(obj:7)
t_x_1719                                            1 	(obj:20)
t_x_1740                                            1 	(obj:26)
t_x_1745                                            1 	(obj:8)
t_x_1752                                            1 	(obj:4)
t_x_1753                                            1 	(obj:22)
t_x_1755                                            1 	(obj:2)
t_x_1759                                            1 	(obj:11)
t_x_1761                                            1 	(obj:6)
t_x_1775                                            1 	(obj:22)
t_x_1776                                            1 	(obj:76)
t_x_1779                                            1 	(obj:3)
t_x_1781                                            1 	(obj:5)
t_x_1790                                            1 	(obj:30)
t_x_1792                                            1 	(obj:24)
t_x_1793                                            1 	(obj:41)
t_x_1794                                            1 	(obj:10)
t_x_1800                                            1 	(obj:3)
t_x_1801                                            1 	(obj:1)
t_x_1802                                            1 	(obj:15)
t_x_1809                                            1 	(obj:16)
t_x_1810                                            1 	(obj:26)
t_x_1819                                            1 	(obj:34)
t_x_1820                                            1 	(obj:25)
t_x_1823                                            1 	(obj:30)
t_x_1826                                            1 	(obj:9)
t_x_1830                                            1 	(obj:37)
t_x_1832                                            1 	(obj:40)
t_x_1833                                            1 	(obj:2)
t_x_1838                                            1 	(obj:15)
t_x_1839                                            1 	(obj:19)
t_x_1840                                            1 	(obj:42)
t_x_1841                                            1 	(obj:33)
t_x_1842                                            1 	(obj:32)
t_x_1844                                            1 	(obj:2)
t_x_1847                                            1 	(obj:26)
t_x_1848                                            1 	(obj:21)
t_x_1849                                            1 	(obj:36)
t_x_1854                                            1 	(obj:31)
t_x_1856                                            1 	(obj:6)
t_x_1859                                            1 	(obj:14)
t_x_1863                                            1 	(obj:32)
t_x_1864                                            1 	(obj:47)
t_x_1865                                            1 	(obj:31)
t_x_1868                                            1 	(obj:8)
t_x_1870                                            1 	(obj:3)
t_x_1881                                            1 	(obj:17)
t_x_1883                                            1 	(obj:4)
t_x_1887                                            1 	(obj:28)
t_x_1898                                            1 	(obj:4)
t_x_1900                                            1 	(obj:17)
t_x_1907                                            1 	(obj:61)
t_x_1919                                            1 	(obj:18)
t_x_1921                                            1 	(obj:11)
t_x_1925                                            1 	(obj:16)
t_x_1927                                            1 	(obj:19)
t_x_1932                                            1 	(obj:59)
t_x_1941                                            1 	(obj:22)
t_x_1944                                            1 	(obj:24)
t_x_1946                                            1 	(obj:17)
t_x_1947                                            1 	(obj:28)
t_x_1956                                            1 	(obj:19)
t_x_1958                                            1 	(obj:23)
t_x_1961                                            1 	(obj:17)
t_x_1962                                            1 	(obj:1)
t_x_1964                                            1 	(obj:3)
t_x_1967                                            1 	(obj:22)
t_x_1968                                            1 	(obj:15)
t_x_1971                                            1 	(obj:4)
t_x_1973                                            1 	(obj:2)
t_x_1977                                            1 	(obj:40)
t_x_1981                                            1 	(obj:1)
t_x_1985                                            1 	(obj:37)
t_x_1986                                            1 	(obj:12)
t_x_1993                                            1 	(obj:18)
t_x_1999                                            1 	(obj:6)
